
(set-logic ALL) 

(declare-datatype MyList ((Nil) (Cons (head Real) (tail MyList)) )) 
(declare-fun l0 () MyList) 
(declare-fun l1 () MyList) 
(declare-fun l2 () MyList) 
(declare-fun l3 () MyList) 
(declare-fun i0 () Real) 
(declare-fun i1 () Real) 
(assert (not (is-Cons l0)) )
(assert (is-Nil l0) )
(assert (= l0 Nil) )
(assert (and (= l2 l3) (is-Nil Nil) (is-Cons Nil) (= l0 l2)) )
(assert (or (= l3 Nil) (is-Nil Nil)) )
(assert (= l1 Nil) )
(assert (is-Cons l1) )
(assert (or (= l1 Nil) (is-Cons l3)) )
(check-sat)
